s td 17 74 90
b 1 1 2 3 4 5 6 7 8 10 12 13 16 17 18 19 20 21 22 23 24 25 27 29 30 31 33 35 36 38 39 40 41 42 43 44 45 46 47 48 49 50 51 52 53 55 56 57 59 61 62 63 64 67 68 69 70 72 73 74 75 76 77 78 79 80 81 82 83 84 85 86 88 89 90
b 2 1 2 3 4 6 7 8 9 10 12 16 17 18 19 21 22 23 24 25 27 29 30 31 33 35 38 39 40 41 42 43 44 45 46 48 49 50 51 52 55 56 57 59 61 62 64 68 69 70 72 73 75 76 77 79 81 83 84 86 89 90
b 3 1 2 3 4 6 7 8 9 10 12 17 18 19 21 22 23 24 25 31 32 33 35 38 39 40 41 42 43 44 45 46 48 49 50 51 52 55 56 57 59 62 70 72 75 76 77 79 81 83 84 89 90
b 4 1 2 3 4 5 6 7 8 10 12 13 16 17 18 19 20 21 22 23 24 25 27 28 29 30 31 35 36 38 39 40 41 42 43 44 45 46 47 48 49 50 51 52 53 55 56 57 59 61 62 63 64 67 68 69 70 72 73 74 75 76 77 78 79 80 81 82 83 84 85 86 88 89 90
b 5 2 5 6 11 12 13 16 17 18 20 21 23 25 28 30 31 36 39 40 41 42 45 46 47 49 50 52 55 56 61 62 63 64 68 69 70 75 76 77 78 83 90
b 6 1 2 3 4 5 6 7 8 10 12 13 16 17 18 19 20 21 22 23 24 25 27 28 29 30 31 35 36 38 39 40 41 42 43 44 46 47 48 49 50 51 52 53 54 55 56 57 59 61 62 63 64 67 68 69 70 72 73 74 75 76 77 78 79 80 81 82 83 84 85 86 88 89 90
b 7 2 3 4 5 6 7 8 10 12 13 16 17 18 19 20 21 22 23 24 25 27 28 29 30 31 35 36 38 39 40 41 42 43 44 46 47 48 49 50 51 52 53 54 55 56 57 59 61 62 63 64 67 68 69 70 72 73 74 75 76 77 78 79 80 81 82 83 84 85 86 87 88 89 90
b 8 2 3 4 5 6 7 8 10 12 13 16 17 18 19 21 22 23 24 25 27 28 29 30 31 35 36 38 39 40 41 42 43 44 46 47 48 49 50 51 52 53 54 55 56 57 59 61 62 63 64 66 67 68 69 70 72 73 74 75 76 77 78 79 80 81 82 83 84 85 86 87 88 89 90
b 9 2 3 4 5 6 7 8 10 12 13 16 17 18 19 21 22 23 24 25 27 28 29 30 35 36 38 39 40 41 42 43 44 46 47 48 49 50 51 52 53 54 55 56 57 59 61 62 63 64 66 67 68 69 70 71 72 73 74 75 76 77 78 79 80 81 82 83 84 85 86 87 88 89 90
b 10 2 3 4 5 6 7 8 10 12 13 16 17 18 19 22 23 24 25 26 27 28 29 30 35 36 38 39 40 41 42 43 44 46 47 48 49 50 51 52 54 55 56 57 59 61 62 63 64 66 67 68 69 70 71 72 73 74 75 76 77 78 79 80 82 83 84 85 86 87 88 89 90
b 11 2 3 4 5 6 7 10 12 13 16 17 18 19 22 23 24 25 26 27 28 29 30 34 35 36 38 39 40 41 42 43 44 46 47 48 49 50 51 52 54 55 56 57 59 61 62 63 64 66 67 68 69 70 71 72 73 74 75 76 78 79 80 82 83 84 85 86 87 88 89 90
b 12 2 3 4 5 6 7 10 12 14 16 17 18 19 22 23 24 25 26 27 28 29 30 34 35 36 38 39 40 42 43 44 46 47 48 49 50 51 52 54 55 56 57 59 61 62 63 64 66 67 68 70 71 72 73 74 76 78 79 80 82 83 84 86 88 89 90
b 13 2 3 4 5 6 7 10 12 14 16 17 18 22 23 24 25 26 27 29 30 34 36 38 39 40 42 43 44 46 47 48 49 50 54 55 56 57 59 61 62 63 64 65 66 68 70 71 72 73 74 76 78 79 82 83 84 86 88 89 90
b 14 2 3 4 6 12 16 17 18 22 26 27 29 30 37 39 43 44 47 48 54 56 57 61 62 63 64 65 66 70 71 73 76 78 79 82 83 84 88 89
b 15 2 3 4 5 6 7 10 16 17 18 19 21 22 24 27 28 29 30 39 41 42 43 48 50 51 52 53 55 56 58 59 61 62 66 67 70 71 74 75 77 79 81 82 83 86 87
b 16 1 2 3 5 6 7 15 16 18 19 20 23 31 33 36 38 39 40 41 43 44 45 46 47 49 51 52 53 61 67 69 74 77 83 85 86 88 90
b 17 4 5 6 7 8 13 16 18 20 21 23 24 29 33 35 36 38 39 40 42 44 45 48 51 53 55 56 59 60 63 64 67 70 73 74 78 80 81 82 84 90
1 2
1 4
1 16
1 17
2 3
4 5
4 6
6 7
7 8
8 9
9 10
9 15
10 11
11 12
12 13
13 14
